p edge 1484 1444
e 1 2
e 1 3
e 1 4
e 1 5
e 1 6
e 1 7
e 1 8
e 1 9
e 1 10
e 1 11
e 1 12
e 1 13
e 1 14
e 1 15
e 1 16
e 1 17
e 1 18
e 1 19
e 1 20
e 1 21
e 1 22
e 1 23
e 1 24
e 1 25
e 1 26
e 1 27
e 1 28
e 1 29
e 1 30
e 1 31
e 1 32
e 1 33
e 1 34
e 1 35
e 1 36
e 1 37
e 1 38
e 1 39
e 1 40
e 1 41
e 1 42
e 43 44
e 43 45
e 43 46
e 43 47
e 43 48
e 43 49
e 43 50
e 43 51
e 43 52
e 43 53
e 43 54
e 43 55
e 43 56
e 43 57
e 43 58
e 43 59
e 43 60
e 43 61
e 43 62
e 43 63
e 43 64
e 43 65
e 43 66
e 43 67
e 43 68
e 43 69
e 43 70
e 43 71
e 43 72
e 43 73
e 43 74
e 43 75
e 43 76
e 43 77
e 43 78
e 43 79
e 43 80
e 43 81
e 82 83
e 82 84
e 82 85
e 82 86
e 82 87
e 82 88
e 82 89
e 82 90
e 82 91
e 82 92
e 82 93
e 82 94
e 82 95
e 96 97
e 96 98
e 96 99
e 96 100
e 96 101
e 96 102
e 96 103
e 96 104
e 96 105
e 96 106
e 96 107
e 96 108
e 96 109
e 96 110
e 96 111
e 96 112
e 96 113
e 96 114
e 96 115
e 96 116
e 96 117
e 96 118
e 96 119
e 96 120
e 96 121
e 122 123
e 122 124
e 122 125
e 122 126
e 122 127
e 122 128
e 122 129
e 122 130
e 122 131
e 122 132
e 122 133
e 122 134
e 122 135
e 122 136
e 122 137
e 122 138
e 122 139
e 122 140
e 122 141
e 122 142
e 122 143
e 122 144
e 122 145
e 122 146
e 122 147
e 122 148
e 122 149
e 122 150
e 122 151
e 122 152
e 122 153
e 122 154
e 122 155
e 122 156
e 122 157
e 122 158
e 122 159
e 122 160
e 122 161
e 122 162
e 122 163
e 122 164
e 122 165
e 122 166
e 167 168
e 167 169
e 167 170
e 167 171
e 167 172
e 167 173
e 167 174
e 167 175
e 167 176
e 167 177
e 167 178
e 167 179
e 167 180
e 167 181
e 167 182
e 167 183
e 167 184
e 167 185
e 167 186
e 167 187
e 167 188
e 167 189
e 167 190
e 167 191
e 167 192
e 167 193
e 167 194
e 167 195
e 167 196
e 167 197
e 167 198
e 167 199
e 167 200
e 167 201
e 167 202
e 167 203
e 167 204
e 167 205
e 167 206
e 167 207
e 167 208
e 167 209
e 167 210
e 167 211
e 167 212
e 167 213
e 167 214
e 167 215
e 167 216
e 167 217
e 167 218
e 167 219
e 167 220
e 167 221
e 167 222
e 167 223
e 224 225
e 224 226
e 224 227
e 224 228
e 224 229
e 224 230
e 224 231
e 224 232
e 224 233
e 224 234
e 224 235
e 224 236
e 224 237
e 224 238
e 224 239
e 224 240
e 224 241
e 224 242
e 224 243
e 224 244
e 245 246
e 245 247
e 245 248
e 245 249
e 245 250
e 245 251
e 245 252
e 245 253
e 245 254
e 245 255
e 245 256
e 245 257
e 245 258
e 245 259
e 245 260
e 245 261
e 245 262
e 245 263
e 245 264
e 245 265
e 245 266
e 245 267
e 245 268
e 269 270
e 269 271
e 269 272
e 269 273
e 269 274
e 269 275
e 269 276
e 269 277
e 269 278
e 269 279
e 269 280
e 269 281
e 269 282
e 269 283
e 269 284
e 269 285
e 269 286
e 269 287
e 269 288
e 269 289
e 269 290
e 269 291
e 269 292
e 269 293
e 269 294
e 269 295
e 269 296
e 269 297
e 269 298
e 269 299
e 269 300
e 269 301
e 269 302
e 269 303
e 269 304
e 269 305
e 269 306
e 269 307
e 269 308
e 269 309
e 269 310
e 269 311
e 269 312
e 269 313
e 269 314
e 269 315
e 269 316
e 269 317
e 269 318
e 269 319
e 269 320
e 321 322
e 321 323
e 321 324
e 321 325
e 321 326
e 321 327
e 321 328
e 321 329
e 321 330
e 321 331
e 321 332
e 321 333
e 321 334
e 321 335
e 321 336
e 321 337
e 321 338
e 321 339
e 321 340
e 321 341
e 321 342
e 321 343
e 321 344
e 321 345
e 321 346
e 321 347
e 321 348
e 321 349
e 321 350
e 321 351
e 321 352
e 321 353
e 321 354
e 321 355
e 321 356
e 321 357
e 321 358
e 321 359
e 321 360
e 321 361
e 321 362
e 321 363
e 321 364
e 321 365
e 321 366
e 321 367
e 321 368
e 321 369
e 321 370
e 321 371
e 321 372
e 321 373
e 321 374
e 321 375
e 321 376
e 321 377
e 378 379
e 378 380
e 378 381
e 378 382
e 378 383
e 378 384
e 378 385
e 378 386
e 378 387
e 378 388
e 378 389
e 378 390
e 378 391
e 378 392
e 378 393
e 378 394
e 378 395
e 378 396
e 378 397
e 378 398
e 378 399
e 378 400
e 378 401
e 378 402
e 378 403
e 378 404
e 378 405
e 378 406
e 378 407
e 378 408
e 378 409
e 378 410
e 378 411
e 412 413
e 412 414
e 412 415
e 412 416
e 412 417
e 412 418
e 412 419
e 412 420
e 412 421
e 412 422
e 412 423
e 424 425
e 424 426
e 424 427
e 424 428
e 424 429
e 424 430
e 424 431
e 424 432
e 424 433
e 424 434
e 424 435
e 436 437
e 436 438
e 436 439
e 436 440
e 436 441
e 436 442
e 436 443
e 436 444
e 436 445
e 436 446
e 436 447
e 436 448
e 436 449
e 436 450
e 436 451
e 436 452
e 436 453
e 436 454
e 436 455
e 436 456
e 436 457
e 436 458
e 436 459
e 436 460
e 436 461
e 436 462
e 436 463
e 436 464
e 436 465
e 436 466
e 436 467
e 436 468
e 436 469
e 436 470
e 436 471
e 436 472
e 436 473
e 436 474
e 436 475
e 436 476
e 436 477
e 436 478
e 436 479
e 480 481
e 480 482
e 480 483
e 480 484
e 480 485
e 480 486
e 480 487
e 480 488
e 480 489
e 480 490
e 480 491
e 480 492
e 480 493
e 480 494
e 480 495
e 480 496
e 480 497
e 480 498
e 480 499
e 480 500
e 480 501
e 480 502
e 480 503
e 480 504
e 480 505
e 480 506
e 480 507
e 480 508
e 480 509
e 480 510
e 480 511
e 480 512
e 480 513
e 480 514
e 480 515
e 480 516
e 480 517
e 480 518
e 480 519
e 480 520
e 480 521
e 480 522
e 480 523
e 480 524
e 480 525
e 480 526
e 480 527
e 480 528
e 480 529
e 480 530
e 480 531
e 480 532
e 480 533
e 480 534
e 480 535
e 480 536
e 480 537
e 480 538
e 480 539
e 540 541
e 540 542
e 540 543
e 540 544
e 540 545
e 540 546
e 540 547
e 540 548
e 540 549
e 540 550
e 540 551
e 540 552
e 540 553
e 540 554
e 540 555
e 540 556
e 540 557
e 558 559
e 558 560
e 558 561
e 558 562
e 558 563
e 558 564
e 558 565
e 558 566
e 558 567
e 558 568
e 558 569
e 558 570
e 558 571
e 558 572
e 558 573
e 558 574
e 558 575
e 558 576
e 558 577
e 558 578
e 558 579
e 558 580
e 558 581
e 558 582
e 558 583
e 558 584
e 558 585
e 558 586
e 558 587
e 558 588
e 558 589
e 558 590
e 558 591
e 558 592
e 558 593
e 558 594
e 558 595
e 558 596
e 558 597
e 598 599
e 598 600
e 598 601
e 598 602
e 598 603
e 598 604
e 598 605
e 598 606
e 598 607
e 598 608
e 598 609
e 598 610
e 598 611
e 598 612
e 598 613
e 598 614
e 598 615
e 598 616
e 598 617
e 598 618
e 598 619
e 598 620
e 598 621
e 598 622
e 598 623
e 598 624
e 598 625
e 598 626
e 598 627
e 598 628
e 598 629
e 598 630
e 598 631
e 598 632
e 598 633
e 598 634
e 598 635
e 598 636
e 598 637
e 598 638
e 598 639
e 598 640
e 598 641
e 598 642
e 598 643
e 598 644
e 598 645
e 598 646
e 598 647
e 598 648
e 598 649
e 598 650
e 598 651
e 598 652
e 653 654
e 653 655
e 653 656
e 653 657
e 653 658
e 653 659
e 653 660
e 653 661
e 653 662
e 653 663
e 653 664
e 653 665
e 653 666
e 653 667
e 653 668
e 653 669
e 653 670
e 653 671
e 653 672
e 653 673
e 653 674
e 653 675
e 653 676
e 653 677
e 653 678
e 653 679
e 653 680
e 653 681
e 653 682
e 653 683
e 653 684
e 653 685
e 653 686
e 653 687
e 653 688
e 653 689
e 690 691
e 690 692
e 690 693
e 690 694
e 690 695
e 690 696
e 690 697
e 690 698
e 690 699
e 690 700
e 690 701
e 690 702
e 690 703
e 690 704
e 690 705
e 690 706
e 690 707
e 690 708
e 690 709
e 690 710
e 690 711
e 690 712
e 690 713
e 690 714
e 690 715
e 690 716
e 690 717
e 690 718
e 690 719
e 690 720
e 690 721
e 690 722
e 690 723
e 690 724
e 690 725
e 690 726
e 690 727
e 690 728
e 690 729
e 690 730
e 690 731
e 690 732
e 690 733
e 690 734
e 690 735
e 690 736
e 690 737
e 690 738
e 739 740
e 739 741
e 739 742
e 739 743
e 739 744
e 739 745
e 739 746
e 739 747
e 739 748
e 739 749
e 739 750
e 739 751
e 739 752
e 739 753
e 739 754
e 739 755
e 739 756
e 739 757
e 739 758
e 739 759
e 739 760
e 739 761
e 739 762
e 739 763
e 739 764
e 739 765
e 739 766
e 739 767
e 739 768
e 739 769
e 739 770
e 739 771
e 739 772
e 739 773
e 739 774
e 739 775
e 739 776
e 739 777
e 739 778
e 779 780
e 779 781
e 779 782
e 779 783
e 779 784
e 779 785
e 779 786
e 779 787
e 779 788
e 779 789
e 779 790
e 779 791
e 779 792
e 779 793
e 779 794
e 779 795
e 779 796
e 779 797
e 779 798
e 779 799
e 779 800
e 779 801
e 779 802
e 779 803
e 779 804
e 779 805
e 806 807
e 806 808
e 806 809
e 806 810
e 806 811
e 806 812
e 806 813
e 806 814
e 806 815
e 806 816
e 806 817
e 806 818
e 806 819
e 806 820
e 806 821
e 806 822
e 806 823
e 806 824
e 806 825
e 806 826
e 806 827
e 806 828
e 806 829
e 806 830
e 806 831
e 806 832
e 806 833
e 806 834
e 806 835
e 806 836
e 806 837
e 838 839
e 838 840
e 838 841
e 838 842
e 838 843
e 838 844
e 838 845
e 838 846
e 838 847
e 838 848
e 838 849
e 838 850
e 838 851
e 838 852
e 838 853
e 838 854
e 838 855
e 838 856
e 838 857
e 838 858
e 838 859
e 838 860
e 838 861
e 838 862
e 838 863
e 838 864
e 838 865
e 838 866
e 838 867
e 838 868
e 838 869
e 838 870
e 871 872
e 871 873
e 871 874
e 871 875
e 871 876
e 871 877
e 871 878
e 871 879
e 871 880
e 871 881
e 871 882
e 871 883
e 871 884
e 871 885
e 871 886
e 871 887
e 871 888
e 871 889
e 871 890
e 871 891
e 871 892
e 871 893
e 871 894
e 871 895
e 871 896
e 871 897
e 871 898
e 871 899
e 871 900
e 871 901
e 902 903
e 902 904
e 902 905
e 902 906
e 902 907
e 902 908
e 902 909
e 902 910
e 902 911
e 902 912
e 902 913
e 902 914
e 902 915
e 902 916
e 902 917
e 902 918
e 902 919
e 902 920
e 902 921
e 902 922
e 902 923
e 902 924
e 902 925
e 902 926
e 902 927
e 902 928
e 902 929
e 902 930
e 902 931
e 902 932
e 902 933
e 902 934
e 902 935
e 902 936
e 902 937
e 902 938
e 902 939
e 902 940
e 902 941
e 902 942
e 902 943
e 902 944
e 902 945
e 902 946
e 902 947
e 902 948
e 902 949
e 902 950
e 902 951
e 902 952
e 902 953
e 902 954
e 902 955
e 902 956
e 902 957
e 902 958
e 902 959
e 902 960
e 961 962
e 961 963
e 961 964
e 961 965
e 961 966
e 961 967
e 961 968
e 961 969
e 961 970
e 961 971
e 961 972
e 961 973
e 961 974
e 961 975
e 961 976
e 961 977
e 961 978
e 961 979
e 961 980
e 961 981
e 961 982
e 961 983
e 961 984
e 961 985
e 961 986
e 961 987
e 961 988
e 961 989
e 961 990
e 961 991
e 961 992
e 961 993
e 961 994
e 961 995
e 961 996
e 961 997
e 961 998
e 961 999
e 961 1000
e 961 1001
e 961 1002
e 961 1003
e 961 1004
e 961 1005
e 961 1006
e 961 1007
e 961 1008
e 961 1009
e 961 1010
e 1011 1012
e 1011 1013
e 1011 1014
e 1011 1015
e 1011 1016
e 1011 1017
e 1011 1018
e 1011 1019
e 1011 1020
e 1011 1021
e 1011 1022
e 1011 1023
e 1011 1024
e 1011 1025
e 1011 1026
e 1011 1027
e 1011 1028
e 1011 1029
e 1011 1030
e 1011 1031
e 1011 1032
e 1011 1033
e 1011 1034
e 1011 1035
e 1011 1036
e 1011 1037
e 1011 1038
e 1011 1039
e 1011 1040
e 1011 1041
e 1011 1042
e 1011 1043
e 1011 1044
e 1011 1045
e 1011 1046
e 1011 1047
e 1011 1048
e 1011 1049
e 1011 1050
e 1011 1051
e 1011 1052
e 1011 1053
e 1054 1055
e 1054 1056
e 1054 1057
e 1054 1058
e 1054 1059
e 1054 1060
e 1054 1061
e 1054 1062
e 1054 1063
e 1054 1064
e 1054 1065
e 1054 1066
e 1054 1067
e 1054 1068
e 1054 1069
e 1054 1070
e 1054 1071
e 1054 1072
e 1054 1073
e 1054 1074
e 1054 1075
e 1054 1076
e 1054 1077
e 1054 1078
e 1054 1079
e 1054 1080
e 1054 1081
e 1054 1082
e 1054 1083
e 1054 1084
e 1054 1085
e 1054 1086
e 1054 1087
e 1054 1088
e 1054 1089
e 1054 1090
e 1054 1091
e 1054 1092
e 1054 1093
e 1054 1094
e 1054 1095
e 1054 1096
e 1054 1097
e 1054 1098
e 1054 1099
e 1054 1100
e 1054 1101
e 1054 1102
e 1054 1103
e 1054 1104
e 1054 1105
e 1054 1106
e 1054 1107
e 1054 1108
e 1054 1109
e 1054 1110
e 1111 1112
e 1111 1113
e 1111 1114
e 1111 1115
e 1111 1116
e 1111 1117
e 1111 1118
e 1111 1119
e 1111 1120
e 1111 1121
e 1111 1122
e 1111 1123
e 1111 1124
e 1111 1125
e 1111 1126
e 1111 1127
e 1111 1128
e 1111 1129
e 1111 1130
e 1111 1131
e 1111 1132
e 1111 1133
e 1111 1134
e 1111 1135
e 1111 1136
e 1111 1137
e 1111 1138
e 1111 1139
e 1111 1140
e 1141 1142
e 1141 1143
e 1141 1144
e 1141 1145
e 1141 1146
e 1141 1147
e 1141 1148
e 1141 1149
e 1141 1150
e 1141 1151
e 1141 1152
e 1141 1153
e 1141 1154
e 1141 1155
e 1141 1156
e 1141 1157
e 1141 1158
e 1141 1159
e 1141 1160
e 1141 1161
e 1141 1162
e 1141 1163
e 1141 1164
e 1141 1165
e 1141 1166
e 1141 1167
e 1141 1168
e 1141 1169
e 1141 1170
e 1141 1171
e 1141 1172
e 1141 1173
e 1141 1174
e 1141 1175
e 1141 1176
e 1141 1177
e 1141 1178
e 1179 1180
e 1179 1181
e 1179 1182
e 1179 1183
e 1179 1184
e 1179 1185
e 1179 1186
e 1179 1187
e 1179 1188
e 1179 1189
e 1179 1190
e 1179 1191
e 1179 1192
e 1179 1193
e 1179 1194
e 1179 1195
e 1179 1196
e 1179 1197
e 1179 1198
e 1179 1199
e 1179 1200
e 1179 1201
e 1179 1202
e 1179 1203
e 1179 1204
e 1179 1205
e 1179 1206
e 1179 1207
e 1179 1208
e 1179 1209
e 1179 1210
e 1179 1211
e 1179 1212
e 1179 1213
e 1179 1214
e 1215 1216
e 1215 1217
e 1215 1218
e 1215 1219
e 1215 1220
e 1215 1221
e 1215 1222
e 1215 1223
e 1215 1224
e 1215 1225
e 1215 1226
e 1215 1227
e 1215 1228
e 1215 1229
e 1215 1230
e 1215 1231
e 1215 1232
e 1215 1233
e 1215 1234
e 1215 1235
e 1215 1236
e 1215 1237
e 1215 1238
e 1215 1239
e 1215 1240
e 1215 1241
e 1215 1242
e 1215 1243
e 1215 1244
e 1215 1245
e 1215 1246
e 1215 1247
e 1215 1248
e 1249 1250
e 1249 1251
e 1249 1252
e 1249 1253
e 1249 1254
e 1249 1255
e 1249 1256
e 1249 1257
e 1249 1258
e 1249 1259
e 1249 1260
e 1249 1261
e 1249 1262
e 1249 1263
e 1249 1264
e 1249 1265
e 1249 1266
e 1249 1267
e 1249 1268
e 1249 1269
e 1249 1270
e 1249 1271
e 1249 1272
e 1249 1273
e 1249 1274
e 1249 1275
e 1249 1276
e 1249 1277
e 1249 1278
e 1249 1279
e 1249 1280
e 1281 1282
e 1281 1283
e 1281 1284
e 1281 1285
e 1281 1286
e 1281 1287
e 1281 1288
e 1281 1289
e 1281 1290
e 1281 1291
e 1281 1292
e 1281 1293
e 1294 1295
e 1294 1296
e 1294 1297
e 1294 1298
e 1294 1299
e 1294 1300
e 1294 1301
e 1294 1302
e 1294 1303
e 1294 1304
e 1294 1305
e 1294 1306
e 1294 1307
e 1294 1308
e 1294 1309
e 1294 1310
e 1294 1311
e 1294 1312
e 1294 1313
e 1294 1314
e 1294 1315
e 1294 1316
e 1294 1317
e 1318 1319
e 1318 1320
e 1318 1321
e 1318 1322
e 1318 1323
e 1318 1324
e 1318 1325
e 1318 1326
e 1318 1327
e 1318 1328
e 1318 1329
e 1318 1330
e 1318 1331
e 1318 1332
e 1318 1333
e 1318 1334
e 1318 1335
e 1318 1336
e 1318 1337
e 1318 1338
e 1318 1339
e 1318 1340
e 1318 1341
e 1318 1342
e 1318 1343
e 1318 1344
e 1318 1345
e 1318 1346
e 1318 1347
e 1318 1348
e 1318 1349
e 1318 1350
e 1318 1351
e 1318 1352
e 1318 1353
e 1318 1354
e 1318 1355
e 1318 1356
e 1318 1357
e 1318 1358
e 1318 1359
e 1318 1360
e 1318 1361
e 1362 1363
e 1362 1364
e 1362 1365
e 1362 1366
e 1362 1367
e 1362 1368
e 1362 1369
e 1362 1370
e 1362 1371
e 1362 1372
e 1362 1373
e 1362 1374
e 1362 1375
e 1362 1376
e 1362 1377
e 1362 1378
e 1362 1379
e 1362 1380
e 1362 1381
e 1362 1382
e 1383 1384
e 1383 1385
e 1383 1386
e 1383 1387
e 1383 1388
e 1383 1389
e 1383 1390
e 1383 1391
e 1383 1392
e 1383 1393
e 1383 1394
e 1383 1395
e 1383 1396
e 1383 1397
e 1383 1398
e 1383 1399
e 1383 1400
e 1383 1401
e 1383 1402
e 1383 1403
e 1383 1404
e 1383 1405
e 1383 1406
e 1383 1407
e 1383 1408
e 1383 1409
e 1383 1410
e 1383 1411
e 1383 1412
e 1383 1413
e 1383 1414
e 1383 1415
e 1383 1416
e 1383 1417
e 1383 1418
e 1383 1419
e 1383 1420
e 1383 1421
e 1383 1422
e 1383 1423
e 1383 1424
e 1383 1425
e 1383 1426
e 1383 1427
e 1383 1428
e 1383 1429
e 1383 1430
e 1383 1431
e 1383 1432
e 1383 1433
e 1383 1434
e 1383 1435
e 1383 1436
e 1383 1437
e 1383 1438
e 1383 1439
e 1383 1440
e 1383 1441
e 1442 1443
e 1442 1444
e 1442 1445
e 1442 1446
e 1442 1447
e 1442 1448
e 1442 1449
e 1442 1450
e 1442 1451
e 1442 1452
e 1442 1453
e 1442 1454
e 1442 1455
e 1442 1456
e 1442 1457
e 1442 1458
e 1442 1459
e 1442 1460
e 1442 1461
e 1442 1462
e 1442 1463
e 1442 1464
e 1442 1465
e 1442 1466
e 1442 1467
e 1442 1468
e 1442 1469
e 1442 1470
e 1442 1471
e 1442 1472
e 1442 1473
e 1442 1474
e 1442 1475
e 1442 1476
e 1442 1477
e 1442 1478
e 1442 1479
e 1442 1480
e 1442 1481
e 1442 1482
e 1442 1483
e 1442 1484
